c File: instances/12_0.35_2.col
c
c Description: Random graph of size 12 vertices and P(0.35) of edges between any two vertices.
p col 12 66
e 1 5
e 1 7
e 1 9
e 1 11
e 2 7
e 2 8
e 2 9
e 2 10
e 2 12
e 3 5
e 3 6
e 3 7
e 3 9
e 3 11
e 3 12
e 4 10
e 4 12
e 5 11
e 6 7
e 6 8
e 6 9
e 6 10
e 7 11
e 8 12
e 9 10
e 9 12